p cnf 43 118
a 11 39 0
e 1 2 3 4 5 6 7 8 9 10 12 13 14 15 16 17 18 19 20 21 22 23 24 25 26 27 28 29 30 31 32 33 34 35 36 37 38 40 41 42 43 0
-3 -1 0
-3 2 0
1 -2 3 0
3 -2 -4 0
-3 2 -4 0
3 2 4 0
-3 -2 4 0
-6 -4 0
-6 -5 0
4 5 6 0
-3 -4 -7 0
3 4 -7 0
-3 4 7 0
3 -4 7 0
8 6 0
8 7 0
-6 -7 -8 0
11 9 0
11 10 0
-9 -10 -11 0
-11 -12 -13 0
11 12 -13 0
-11 12 13 0
11 -12 13 0
13 5 -14 0
-13 -5 -14 0
13 -5 14 0
-13 5 14 0
15 -11 0
15 -1 0
11 1 -15 0
-16 14 0
-16 -15 0
-14 15 16 0
18 -17 0
18 11 0
17 -11 -18 0
-19 10 0
-19 9 0
-10 -9 19 0
-20 -18 0
-20 -19 0
18 19 20 0
21 -16 0
21 -20 0
16 20 -21 0
22 8 0
22 21 0
-8 -21 -22 0
-23 -9 0
-23 3 0
9 -3 23 0
-25 24 0
-25 -12 0
-24 12 25 0
-26 23 0
-26 25 0
-23 -25 26 0
27 22 0
27 -26 0
-22 26 -27 0
29 1 0
29 -28 0
-1 28 -29 0
-30 -9 0
-30 -7 0
9 7 30 0
-31 -28 0
-31 -30 0
28 30 31 0
32 13 0
32 -7 0
-13 7 -32 0
33 31 0
33 -32 0
-31 32 -33 0
-34 -29 0
-34 33 0
29 -33 34 0
-36 -6 0
-36 2 0
6 -2 36 0
35 36 -37 0
-35 -36 -37 0
35 -36 37 0
-35 36 37 0
-9 17 -38 0
9 -17 -38 0
-9 -17 38 0
9 17 38 0
-39 -37 0
-39 -38 0
37 38 39 0
2 11 -40 0
-2 -11 -40 0
2 -11 40 0
-2 11 40 0
41 -39 0
41 -40 0
39 40 -41 0
-42 -34 0
-42 41 0
34 -41 42 0
-43 -27 0
-43 -42 0
27 42 43 0
19 -32 22 -25 0
10 26 -20 11 -2 21 16 0
26 24 20 -36 -33 6 11 0
39 9 -26 23 -11 18 0
-17 -8 7 0
-41 -28 20 0
-31 -4 26 -5 -7 27 -11 -2 0
-2 -4 -15 -18 -29 -33 -40 0
10 -20 17 -38 32 5 0
-19 -34 -38 -6 42 -7 0
-9 33 6 -35 4 0
43 0
